(declare-const BAV1 Bool)
(declare-const BAV2 Bool)
(declare-const BAV3 Bool)
(declare-const GEN3 Int)
(declare-const GEN2 Int)
(declare-const GEN1 Int)
(set-option :auto-config true)
(set-option :produce-models true)
(declare-fun f (Int) Int)
(declare-fun a () Int)
(declare-const b Int)
(assert (> a GEN1))
(assert (> b a))
(assert (= (f GEN2) GEN3))
(assert (= BAV1 (> a GEN1)))
(assert (= BAV2 (> b a)))
(assert (= BAV3 (= (f GEN2) GEN3)))
(check-sat)
(get-model)